num_offers = 25;
num_halls = 10;
start=[66,54,75,17,8,66,76,31,10,21,8,81,7,3,44,37,16,25,19,53,29,24,8,26,12];
end=[73,98,81,69,27,67,95,67,73,74,13,94,89,56,58,55,87,66,29,94,89,61,63,91,68];
price=[191,4052,161,4049,440,87,849,1943,3473,1879,376,668,1936,4769,1462,1774,3810,641,836,1990,1305,1004,3177,1549,3221];
requirement=[842,295,231,488,297,513,738,542,641,733,688,572,635,400,606,518,413,601,558,491,205,890,544,221,982];
capacity=[393,854,424,871,356,568,711,798,874,539];
